p cnf 10 50
6 -1 5 0
-3 5 -8 0
2 -5 4 0
7 8 -3 0
-4 8 -5 0
10 -8 9 0
-2 -7 6 0
-9 7 -6 0
-2 -7 -4 0
-4 -10 7 0
9 6 -4 0
-5 3 -10 0
4 8 1 0
-2 -6 4 0
10 8 -5 0
7 1 -3 0
-3 7 -1 0
9 7 2 0
1 5 -7 0
6 9 3 0
-4 6 7 0
6 -2 7 0
8 -2 -7 0
-5 -7 -4 0
-2 -8 6 0
6 -9 8 0
-5 -9 2 0
5 -9 4 0
-9 -2 -5 0
1 -5 8 0
10 1 -5 0
4 5 1 0
4 -3 -9 0
6 -7 5 0
9 -7 -4 0
-8 -4 7 0
1 6 2 0
1 6 -9 0
3 -1 9 0
-6 1 -5 0
-2 7 5 0
1 -5 -2 0
-3 -10 8 0
-4 5 -8 0
3 -8 -1 0
10 -8 1 0
-3 -5 4 0
4 9 -7 0
9 8 4 0
-3 4 1 0